1517633
182,6,162,146,139,161,35,31,48,62,71,27,34,86,93,26,39,168,80,61,107,49,101,54,77,74,129,191,33,111,154,132,228,82,73,42,156,117,66,70,0,134,206,38,177,59,68,142,96,137,110,45,213,226,133,57,229,220,199,166,130,60,56,9,212,7,85,69,151,41,121,97,112,159,197,125,135,192,200,18,72,187,208,225,30,15,190,172,28,181,79,147,118,180,84,78,175,224,193,46,138,44,211,103,64,222,155,4,219,144,43,22,188,16,114,1,179,157,81,148,40,221,140,99,52,215,65,98,218,104,91,201,174,17,55,23,76,120,105,127,53,189,167,203,24,122,131,92,171,205,158,207,163,75,194,113,123,94,10,217,51,176,198,126,21,183,210,63,2,29,67,8,88,160,36,136,14,119,12,47,109,164,13,124,153,83,173,50,196,58,186,145,11,102,87,20,3,169,141,108,227,149,185,170,89,152,128,216,32,37,202,223,5,95,90,178,150,209,116,184,25,19,143,115,165,100,204,214,195,106
